c SAT problem
p wcnf 215 1021
1 60 -75 0
1 60 -3165 0
1 75 76 0
1 75 -3135 0
1 -90 -105 0
1 -90 3150 0
1 -90 3120 0
1 90 3060 0
1 90 91 0
1 -90 -3165 0
1 -105 -3075 0
1 -105 90 0
1 105 -3165 0
1 -3120 -196 0
1 3120 -3121 0
1 -3120 -181 0
1 -3120 150 0
1 -3120 3135 0
1 3135 196 0
1 3135 -75 0
1 -3135 181 0
1 3135 -60 0
1 -3150 -196 0
1 -3150 -75 0
1 3150 3151 0
1 3150 181 0
1 3150 121 0
1 -3150 90 0
1 -3150 60 0
1 3165 -166 0
1 -3165 136 0
1 3165 75 0
1 -3165 -151 0
1 3165 121 0
1 120 -135 0
1 120 -3120 0
1 135 -136 0
1 -135 3090 0
1 -135 120 0
1 -135 3135 0
1 150 -3090 0
1 150 3060 0
1 150 -151 0
1 150 -3000 0
1 -150 3135 0
1 165 -3105 0
1 165 3075 0
1 -165 -3045 0
1 165 3120 0
1 165 3060 0
1 -165 3000 0
1 3060 225 0
1 3060 -195 0
1 -3060 3075 0
1 3060 -105 0
1 3060 -240 0
1 -3060 -180 0
1 3060 3061 0
1 3060 -120 0
1 3060 90 0
1 3075 -225 0
1 3075 195 0
1 3075 3076 0
1 3075 -240 0
1 -3075 210 0
1 3075 255 0
1 3090 226 0
1 -3090 -196 0
1 3090 135 0
1 -3090 211 0
1 3090 3091 0
1 3090 -181 0
1 3105 150 0
1 -3105 -120 0
1 180 -3075 0
1 -180 -3045 0
1 -180 -3015 0
1 -180 3060 0
1 180 181 0
1 -195 -3075 0
1 195 3030 0
1 210 225 0
1 -210 3015 0
1 -210 211 0
1 -210 3060 0
1 -225 -226 0
1 225 -3075 0
1 3000 -225 0
1 -3000 -3015 0
1 3000 3001 0
1 3000 315 0
1 3015 225 0
1 3015 -195 0
1 -3015 165 0
1 -3015 210 0
1 -3030 195 0
1 -3030 300 0
1 -3030 270 0
1 -3030 240 0
1 -3030 -180 0
1 -3045 195 0
1 3045 -210 0
1 3045 180 0
1 3045 -3030 0
1 -3045 -285 0
1 61 3300 0
1 61 -76 0
1 61 -62 0
1 -76 3330 0
1 76 -75 0
1 76 3345 0
1 76 3315 0
1 91 -3330 0
1 -91 -3300 0
1 91 3270 0
1 -91 -3240 0
1 -91 3315 0
1 -91 3285 0
1 -91 92 0
1 -106 -3270 0
1 106 -3285 0
1 -3300 166 0
1 -3300 3301 0
1 3300 106 0
1 -3300 -182 0
1 3300 61 0
1 -3315 136 0
1 -3315 76 0
1 3315 3316 0
1 3315 151 0
1 3330 3331 0
1 -3330 -3345 0
1 3330 182 0
1 3345 197 0
1 3345 -167 0
1 -3345 76 0
1 121 3270 0
1 121 120 0
1 -121 -122 0
1 -136 3315 0
1 -151 166 0
1 -151 -3240 0
1 -151 -3255 0
1 151 152 0
1 -151 -3195 0
1 151 -3165 0
1 -166 3300 0
1 -166 -167 0
1 -166 3240 0
1 -166 3210 0
1 -166 3225 0
1 166 -3165 0
1 3240 -256 0
1 3240 -3255 0
1 3240 136 0
1 3240 241 0
1 -3240 -181 0
1 3240 -151 0
1 -3255 -196 0
1 3255 136 0
1 -3255 106 0
1 3255 -211 0
1 -3255 -181 0
1 3270 -256 0
1 -3270 -182 0
1 -3270 151 0
1 3270 121 0
1 3270 91 0
1 -3285 -227 0
1 3285 -166 0
1 3285 212 0
1 -3285 182 0
1 3285 151 0
1 -3285 -3286 0
1 -3285 121 0
1 -3285 91 0
1 -181 -196 0
1 181 3150 0
1 -181 3090 0
1 181 -180 0
1 -181 -3255 0
1 -181 -3195 0
1 181 3165 0
1 196 195 0
1 -196 3240 0
1 -196 -3210 0
1 -196 3180 0
1 -196 -3120 0
1 196 3090 0
1 196 -181 0
1 196 3255 0
1 -211 -3105 0
1 -211 3240 0
1 -211 -3151 0
1 -211 3121 0
1 211 3090 0
1 211 210 0
1 211 3225 0
1 226 3136 0
1 -226 211 0
1 -226 -3225 0
1 -3180 196 0
1 -3180 -166 0
1 3180 -301 0
1 -3180 -3181 0
1 3180 -211 0
1 -3195 226 0
1 -3195 3180 0
1 -3195 -301 0
1 3195 -240 0
1 -3195 3196 0
1 -3195 -211 0
1 3195 -255 0
1 -3210 166 0
1 -3210 -3211 0
1 3210 -241 0
1 3210 211 0
1 -3210 -181 0
1 -3210 -151 0
1 3225 -256 0
1 -3225 -226 0
1 3225 -241 0
1 -3225 211 0
1 -3225 -151 0
1 3225 316 0
1 3225 -286 0
1 240 3136 0
1 240 3075 0
1 240 -3045 0
1 -240 -3180 0
1 240 -3166 0
1 -255 256 0
1 -255 -3105 0
1 255 -3075 0
1 -255 3180 0
1 255 -240 0
1 -255 -3060 0
1 -270 -3076 0
1 -270 271 0
1 270 -3091 0
1 270 -3166 0
1 285 -3045 0
1 285 3180 0
1 -285 270 0
1 285 -3151 0
1 -285 -3121 0
1 -285 3030 0
1 -285 -3195 0
1 -285 286 0
1 -3121 -226 0
1 -3121 -361 0
1 -3136 361 0
1 -3136 -330 0
1 -3136 300 0
1 -3136 -270 0
1 -3136 3135 0
1 3136 345 0
1 -3136 315 0
1 3151 361 0
1 3151 331 0
1 3151 -316 0
1 -3151 -3166 0
1 -3166 226 0
1 3166 331 0
1 -3166 270 0
1 3166 -3151 0
1 -3166 -211 0
1 -3166 -376 0
1 -3166 255 0
1 -300 3106 0
1 300 -3045 0
1 300 -3121 0
1 -300 3091 0
1 300 3030 0
1 -300 3000 0
1 315 -3136 0
1 -315 -3076 0
1 -315 -3015 0
1 315 300 0
1 315 3091 0
1 315 -3061 0
1 315 3000 0
1 330 3136 0
1 330 -3016 0
1 345 3136 0
1 345 3076 0
1 345 3046 0
1 -3061 -420 0
1 3061 3060 0
1 3061 -345 0
1 3076 -3077 0
1 -3076 390 0
1 -3076 -300 0
1 -3076 405 0
1 -3076 -375 0
1 3091 -420 0
1 -3091 -391 0
1 -3091 -330 0
1 -3091 300 0
1 3091 -270 0
1 -3106 -3105 0
1 -3106 -3107 0
1 -3106 -391 0
1 -3106 -435 0
1 -3106 -3091 0
1 -3106 -406 0
1 3106 345 0
1 3106 285 0
1 360 3016 0
1 360 361 0
1 360 -3031 0
1 -360 -3061 0
1 -360 375 0
1 375 -3076 0
1 -375 -3061 0
1 -390 -3076 0
1 -390 -3046 0
1 -390 -391 0
1 -390 -405 0
1 390 3031 0
1 -405 3076 0
1 405 390 0
1 405 3016 0
1 405 -406 0
1 -3001 480 0
1 3001 360 0
1 3001 330 0
1 3001 -405 0
1 3001 -345 0
1 3001 3002 0
1 -3016 -390 0
1 -3016 360 0
1 3016 -330 0
1 -3016 375 0
1 -3031 -360 0
1 3031 330 0
1 3031 -495 0
1 3031 -465 0
1 -3031 435 0
1 3031 -3030 0
1 -3031 3032 0
1 3031 -345 0
1 -3046 -420 0
1 3046 -3045 0
1 3046 -390 0
1 -3046 -3047 0
1 -3046 330 0
1 -3046 -465 0
1 -3046 -435 0
1 3046 375 0
1 3046 -345 0
1 -62 -3510 0
1 -62 3480 0
1 77 3525 0
1 -77 -3495 0
1 -77 76 0
1 -77 -3510 0
1 -77 3480 0
1 -77 62 0
1 -92 107 0
1 92 3435 0
1 -92 3510 0
1 92 91 0
1 92 3420 0
1 -107 -3495 0
1 107 -3465 0
1 107 3435 0
1 -107 3480 0
1 107 92 0
1 3480 -152 0
1 3480 -3481 0
1 -3495 -3480 0
1 -3495 167 0
1 3495 -62 0
1 -3510 -107 0
1 -3510 -62 0
1 3525 3526 0
1 -3525 62 0
1 -122 3495 0
1 122 -3465 0
1 -122 3480 0
1 -122 3420 0
1 -137 3330 0
1 -137 -3495 0
1 -137 -3435 0
1 137 122 0
1 -137 -3420 0
1 152 167 0
1 152 3495 0
1 152 3435 0
1 -152 -3450 0
1 152 -3390 0
1 -167 -3450 0
1 -3420 -167 0
1 -3420 -137 0
1 -3420 107 0
1 -3420 -3435 0
1 3420 -122 0
1 3420 3421 0
1 -3435 -3420 0
1 -3435 -122 0
1 -3450 -257 0
1 3450 -167 0
1 -3450 152 0
1 -3450 -3451 0
1 3465 -137 0
1 -3465 -107 0
1 3465 -122 0
1 182 3360 0
1 182 -3330 0
1 182 -3300 0
1 182 3270 0
1 -182 -3435 0
1 182 -3315 0
1 182 3420 0
1 -182 -3390 0
1 197 196 0
1 -197 -3435 0
1 -197 -3405 0
1 197 182 0
1 197 3390 0
1 -212 -227 0
1 212 -3301 0
1 212 3270 0
1 -212 3435 0
1 212 -211 0
1 212 3316 0
1 212 3420 0
1 -227 3270 0
1 -227 3435 0
1 227 -3405 0
1 -227 -3375 0
1 -3360 256 0
1 3375 -302 0
1 -3375 -271 0
1 -3375 -3376 0
1 3375 -212 0
1 3375 -317 0
1 -3390 -257 0
1 -3390 -227 0
1 3390 -3391 0
1 -3390 -3405 0
1 3390 -242 0
1 3390 212 0
1 3405 227 0
1 3405 -197 0
1 -3405 302 0
1 3405 -212 0
1 3405 3390 0
1 -241 256 0
1 241 3375 0
1 241 3316 0
1 241 3285 0
1 -241 -3255 0
1 -256 3331 0
1 256 3240 0
1 256 3375 0
1 256 3346 0
1 -271 -3241 0
1 -271 3210 0
1 271 -3375 0
1 -271 -272 0
1 271 -3256 0
1 -271 -286 0
1 -286 -3331 0
1 286 3301 0
1 286 3210 0
1 -286 271 0
1 286 3346 0
1 286 3316 0
1 286 -3286 0
1 -286 3256 0
1 3301 -3300 0
1 3301 -3302 0
1 -3301 -362 0
1 -3301 -331 0
1 3301 -301 0
1 -3301 241 0
1 -3301 -212 0
1 3301 -316 0
1 3316 227 0
1 -3316 -3301 0
1 -3316 362 0
1 3316 -301 0
1 -3316 271 0
1 -3316 3317 0
1 -3316 -286 0
1 -3331 3330 0
1 -3331 227 0
1 3331 362 0
1 3331 241 0
1 -3331 -377 0
1 -3331 -347 0
1 -3346 -3331 0
1 -3346 -362 0
1 3346 -332 0
1 -3346 -302 0
1 -3346 271 0
1 3346 241 0
1 3346 -3347 0
1 3346 -377 0
1 3346 -347 0
1 301 -3271 0
1 -301 3241 0
1 -301 -300 0
1 -301 -3180 0
1 -301 3286 0
1 301 -3225 0
1 -301 316 0
1 -316 -3271 0
1 -316 -3241 0
1 -316 3195 0
1 316 3151 0
1 316 -3225 0
1 316 317 0
1 -331 -3316 0
1 -331 3286 0
1 -331 3196 0
1 -346 -3301 0
1 -346 3181 0
1 346 3316 0
1 -346 3286 0
1 -346 3256 0
1 346 -347 0
1 3241 361 0
1 3241 436 0
1 -3256 406 0
1 -3256 -346 0
1 3256 -316 0
1 3256 286 0
1 3271 421 0
1 -3271 3270 0
1 -3271 -362 0
1 -3271 331 0
1 3271 436 0
1 -3271 3286 0
1 3271 286 0
1 -3286 -3287 0
1 3286 362 0
1 -3286 301 0
1 361 3136 0
1 361 -362 0
1 361 -3181 0
1 -361 -3151 0
1 -361 -3166 0
1 -376 3136 0
1 376 3151 0
1 376 -3121 0
1 -376 -3091 0
1 376 -3166 0
1 -391 3137 0
1 -391 -390 0
1 391 -3211 0
1 391 -3181 0
1 -391 -406 0
1 391 3256 0
1 391 -3226 0
1 -391 3167 0
1 406 -3137 0
1 -406 -3211 0
1 406 3122 0
1 -406 -405 0
1 406 -3196 0
1 -3181 331 0
1 3181 -3182 0
1 -3181 406 0
1 -3181 -346 0
1 3196 -450 0
1 3196 -331 0
1 -3196 -3181 0
1 3196 -496 0
1 -3196 3197 0
1 3211 451 0
1 3211 361 0
1 3211 331 0
1 3211 466 0
1 3211 376 0
1 -3211 -346 0
1 3226 481 0
1 -3226 451 0
1 3226 -361 0
1 -3226 -3211 0
1 -3226 -496 0
1 -3226 3225 0
1 3226 -346 0
1 -3226 -3227 0
1 -420 3137 0
1 -420 -3076 0
1 420 3046 0
1 -420 3061 0
1 435 3137 0
1 435 -3106 0
1 -435 -420 0
1 435 -3046 0
1 -435 -3167 0
1 -450 3122 0
1 450 -3092 0
1 -450 3031 0
1 -450 3196 0
1 450 -3167 0
1 -465 -3137 0
1 -465 450 0
1 -465 466 0
1 -465 -3031 0
1 465 -3196 0
1 3122 -391 0
1 -3122 495 0
1 3137 -480 0
1 3137 -450 0
1 3137 -556 0
1 3137 -406 0
1 3137 510 0
1 -3152 -450 0
1 -3152 420 0
1 3152 -391 0
1 3167 -420 0
1 3167 526 0
1 3167 -465 0
1 -3167 -435 0
1 -3167 -406 0
1 3167 -541 0
1 480 -481 0
1 480 3046 0
1 480 -3016 0
1 480 -3031 0
1 -495 3077 0
1 495 -3122 0
1 -495 -3092 0
1 495 3031 0
1 510 -3077 0
1 510 3092 0
1 510 -3062 0
1 510 -3032 0
1 525 -3137 0
1 525 3077 0
1 -525 -3047 0
1 -525 -3032 0
1 525 510 0
1 3062 -480 0
1 3062 -3077 0
1 3062 -465 0
1 3062 540 0
1 -3077 -555 0
1 3077 525 0
1 -3077 495 0
1 -3077 3062 0
1 3077 540 0
1 -3077 -510 0
1 -3092 -450 0
1 -3092 -3107 0
1 3092 -586 0
1 3092 556 0
1 3092 -510 0
1 3107 480 0
1 -3107 -3106 0
1 -3107 -525 0
1 3107 495 0
1 -3107 465 0
1 3107 571 0
1 -540 3047 0
1 540 -555 0
1 -540 -3062 0
1 555 -3062 0
1 -555 -3002 0
1 555 -540 0
1 -570 3017 0
1 570 571 0
1 585 3077 0
1 -585 3032 0
1 585 -570 0
1 3002 555 0
1 -3017 3002 0
1 -3017 525 0
1 3017 570 0
1 -3017 540 0
1 -3017 510 0
1 3047 585 0
1 -3047 525 0
1 3047 -540 0
1 -3047 510 0
1 242 257 0
1 -242 3526 0
1 -242 3496 0
1 242 -241 0
1 242 -3420 0
1 242 3390 0
1 257 3496 0
1 -257 3405 0
1 257 -242 0
1 257 3481 0
1 -272 -3526 0
1 272 3496 0
1 -272 3405 0
1 -272 -271 0
1 272 -3390 0
1 287 -3526 0
1 -287 3496 0
1 -287 3466 0
1 287 -3511 0
1 287 -3451 0
1 -287 3421 0
1 -3481 302 0
1 3481 272 0
1 3496 3495 0
1 3496 332 0
1 -3496 272 0
1 -3496 242 0
1 3496 347 0
1 -3496 -317 0
1 -3511 257 0
1 -3511 3510 0
1 -3511 -287 0
1 3526 -257 0
1 3526 3511 0
1 302 -3360 0
1 302 3436 0
1 -302 -301 0
1 -302 3451 0
1 -317 3331 0
1 -317 3436 0
1 317 -3405 0
1 317 3375 0
1 317 3346 0
1 -317 3481 0
1 317 -316 0
1 317 3421 0
1 -332 3331 0
1 332 -3496 0
1 -332 -3466 0
1 -332 331 0
1 332 -3406 0
1 -332 -3346 0
1 332 3451 0
1 332 347 0
1 -332 3421 0
1 347 -3331 0
1 -347 -3496 0
1 347 -332 0
1 347 -3406 0
1 -347 3346 0
1 -347 -346 0
1 -3421 332 0
1 -3421 437 0
1 3421 -407 0
1 3421 -3420 0
1 3421 -3422 0
1 -3436 -332 0
1 -3436 -3437 0
1 3436 437 0
1 3451 -422 0
1 3451 3466 0
1 -3451 -302 0
1 3451 437 0
1 3451 317 0
1 3466 -437 0
1 3466 -347 0
1 -3466 287 0
1 -362 3361 0
1 362 -3331 0
1 362 3376 0
1 -362 3316 0
1 -362 3286 0
1 362 -3391 0
1 377 3331 0
1 377 3271 0
1 -377 362 0
1 377 3406 0
1 377 3346 0
1 -377 -3286 0
1 -377 -376 0
1 377 3421 0
1 392 -3332 0
1 -392 -3302 0
1 -392 3271 0
1 392 3436 0
1 392 3406 0
1 -392 3376 0
1 392 3421 0
1 392 3391 0
1 -407 -3302 0
1 407 -3347 0
1 -407 -3317 0
1 407 406 0
1 -407 -3391 0
1 -3361 3360 0
1 3361 -497 0
1 3361 -407 0
1 -3361 347 0
1 3376 -421 0
1 -3376 -497 0
1 -3376 466 0
1 -3376 -377 0
1 3376 -347 0
1 3391 3392 0
1 -3391 482 0
1 3391 -452 0
1 3391 -392 0
1 -3391 -332 0
1 -3391 -467 0
1 3391 437 0
1 3391 377 0
1 3391 -3390 0
1 -3406 392 0
1 -3406 362 0
1 -3406 -332 0
1 -3406 3405 0
1 -3406 437 0
1 -3406 347 0
1 -421 -3332 0
1 421 -3271 0
1 421 3302 0
1 421 -3376 0
1 -421 3347 0
1 421 -3317 0
1 436 3361 0
1 436 -3332 0
1 -436 3302 0
1 436 -3241 0
1 436 -3226 0
1 -451 -3361 0
1 451 450 0
1 451 -3332 0
1 451 -3242 0
1 -451 -3211 0
1 -451 -3376 0
1 -451 3317 0
1 451 3226 0
1 -466 -451 0
1 -466 -3242 0
1 466 -465 0
1 466 -3347 0
1 3302 451 0
1 3302 -421 0
1 3302 526 0
1 3302 511 0
1 -3317 -421 0
1 -3317 392 0
1 -3317 -526 0
1 3317 -436 0
1 3332 3331 0
1 3332 -392 0
1 3332 -497 0
1 -3347 -3332 0
1 -3347 421 0
1 3347 -557 0
1 -481 -496 0
1 481 3167 0
1 -496 481 0
1 -496 -3302 0
1 -496 3181 0
1 -496 -495 0
1 496 3317 0
1 -496 3287 0
1 -496 3226 0
1 -511 -512 0
1 -511 -3242 0
1 -511 3182 0
1 511 3152 0
1 -511 3317 0
1 -511 3287 0
1 -511 -3257 0
1 -511 -3227 0
1 511 -510 0
1 -511 3167 0
1 526 -3302 0
1 526 -3242 0
1 526 511 0
1 -526 -3212 0
1 526 -3152 0
1 -526 3287 0
1 -526 -3227 0
1 526 3167 0
1 3242 -451 0
1 -3242 -526 0
1 3257 586 0
1 3257 -556 0
1 3257 526 0
1 -3257 496 0
1 3257 3256 0
1 -3272 526 0
1 -3272 496 0
1 -3287 587 0
1 3287 -526 0
1 3287 -572 0
1 541 -3107 0
1 -541 3242 0
1 -541 3212 0
1 -541 -3182 0
1 556 -3137 0
1 -556 3107 0
1 556 3242 0
1 -556 -3212 0
1 -556 -3182 0
1 -556 3152 0
1 -556 -3092 0
1 -556 3197 0
1 556 -3257 0
1 556 541 0
1 -556 3167 0
1 571 -3212 0
1 -571 -3227 0
1 -571 3197 0
1 -586 3242 0
1 3182 -586 0
1 3182 556 0
1 3182 541 0
1 3182 511 0
1 -3197 586 0
1 -3197 -526 0
1 -3197 -571 0
1 -3197 511 0
1 3227 -526 0
1 -3227 -511 0
1 422 -421 0
1 -422 -3497 0
1 437 -422 0
1 437 3497 0
1 437 3436 0
1 437 -3406 0
1 -437 3512 0
1 437 -3391 0
1 452 -451 0
1 452 -3512 0
1 452 3391 0
1 -467 3527 0
1 -467 -3497 0
1 467 3467 0
1 467 3406 0
1 -467 -3512 0
1 -467 3482 0
1 467 3422 0
1 -3482 -452 0
1 3482 3497 0
1 -3482 527 0
1 -3482 -437 0
1 3482 -3481 0
1 -3497 512 0
1 -3497 482 0
1 3497 -452 0
1 3497 -422 0
1 3497 -497 0
1 3497 437 0
1 -3497 3482 0
1 3512 452 0
1 -3512 437 0
1 -3512 -3511 0
1 3527 -3512 0
1 3527 -3526 0
1 3527 437 0
1 482 -3361 0
1 -482 -3332 0
1 -482 3437 0
1 -482 3406 0
1 -482 -3347 0
1 482 3452 0
1 -497 -482 0
1 497 3497 0
1 497 -3437 0
1 497 3406 0
1 497 -496 0
1 -497 -3347 0
1 497 3482 0
1 -497 3452 0
1 -497 3422 0
1 497 3391 0
1 512 3392 0
1 512 -3362 0
1 512 3467 0
1 -512 -3407 0
1 512 3452 0
1 -527 3392 0
1 -527 -3332 0
1 527 3497 0
1 -527 -526 0
1 -527 -3407 0
1 527 -3422 0
1 -3422 -512 0
1 -3422 -482 0
1 -3422 -557 0
1 -3422 3437 0
1 -3422 -572 0
1 3437 -452 0
1 3437 -557 0
1 3437 572 0
1 3437 -3422 0
1 3452 512 0
1 3452 3467 0
1 -3452 497 0
1 3467 -482 0
1 3467 -527 0
1 3467 -497 0
1 3467 467 0
1 557 -3392 0
1 557 -3407 0
1 557 -3377 0
1 -557 -3422 0
1 -572 -3392 0
1 572 3362 0
1 572 3272 0
1 -572 571 0
1 587 3272 0
1 -587 586 0
1 -587 -3437 0
1 587 -3377 0
1 -587 -572 0
1 587 -3422 0
1 -3362 -512 0
1 3362 3361 0
1 -3362 -587 0
1 3362 -527 0
1 3362 3377 0
1 -3362 572 0
1 -3377 3362 0
1 -3377 587 0
1 -3377 -557 0
1 3392 -512 0
1 -3392 -557 0
1 -3407 512 0
1 3407 3392 0
1 -3407 -587 0
1 -3407 557 0
